NAME: berlin52.opt.tour 
TYPE: TOUR 
DIMENSION: 52 
TOUR_SECTION 
44 
37 
34 
35 
36 
33 
0 
31 
21 
2 
16 
20 
1 
23 
47 
4 
14 
5 
3 
24 
50 
11 
27 
25 
26 
46 
12 
13 
51 
10 
45 
39 
38 
32 
19 
22 
30 
17 
48 
18 
40 
8 
9 
7 
42 
43 
15 
28 
6 
41 
29 
49 
